
%block LATTICE_ABC
bohr
9.390752  9.390752 13.087549
90.00 90.0 90.00
%endblock LATTICE_ABC


%block POSITIONS_FRAC
Si   1.3006          1.3006          1.0
Si   -0.3006         -0.3006         0.5
Si   .1994           .8006           0.25
Si   .8006           .1994           0.75
O   0.2392          0.1049          0.1789
O   -0.2392         -0.1049         0.6789
O   .3951           .7392           .4289
O   .6049           .2608           0.9289
O   .2608           .6049           .0711
O   .7392           .3951           .5711
O   0.1049          0.2392          -0.1789
O   -0.1049         -0.2392         .3211
%endblock POSITIONS_FRAC


kpoints_mp_grid 4 4 4 

SYMMETRY_GENERATE
