
%block POSITIONS_FRAC
Si   0.5299000144   -0.0000000000    0.6666666667
Si   0.0000000000    0.5299000144    1.3333333333
Si  -0.5299000144   -0.5299000144    1.0000000000
O   0.5860999823    0.7325999737    0.7856000066
O  -0.7325999737   -0.1464999914    1.4522666732
O   0.1464999914   -0.5860999823    1.1189333399
O   0.7325999737    0.5860999823   -0.7856000066
O  -0.1464999914   -0.7325999737   -0.4522666732
O  -0.5860999823    0.1464999914   -0.1189333399
%endblock POSITIONS_FRAC

%block LATTICE_CART
bohr
 8.045 -4.645 0.00
 0.00 9.290 0.00
 0.00 0.00 10.215
%endblock LATTICE_CART

SYMMETRY_GENERATE

kpoints_mp_grid 4 4 4 
kpoints_mp_offset 0.5 0.5 0.5
