%BLOCK LATTICE_CART
    6.0250000000    0.0000000000    0.0000000000
    0.0000000000   12.3240000000    0.0000000000
    0.0000000000    0.0000000000    5.7830000000
%ENDBLOCK LATTICE_CART

%BLOCK POSITIONS_FRAC
     H    0.7107054050    0.0593151579    0.2004150163
     H    0.4356846473    0.2472411499    0.3375410724
     H    0.3188381749    0.0067348261    0.3057236740
     H    0.5946887875    0.1489776019    0.0178108249
     H    0.1458921175    0.1049983795    0.4295348379
     H    0.7842323493    0.1917396881    0.2111360809
     H    0.2099585038    0.1105972116    0.1329759630
     H   -0.2107054050   -0.0593151579    0.7004150163
     H    0.0643153527   -0.2472411499    0.8375410724
     H    0.1811618251   -0.0067348261    0.8057236740
     H   -0.0946887875   -0.1489776019    0.5178108249
     H    0.3541078825   -0.1049983795    0.9295348379
     H   -0.2842323493   -0.1917396881    0.7111360809
     H    0.2900414962   -0.1105972116    0.6329759630
     H   -0.7107054050    0.5593151579    0.2995849837
     H   -0.4356846473    0.7472411499    0.1624589276
     H   -0.3188381749    0.5067348261    0.1942763260
     H   -0.5946887875    0.6489776019    0.4821891751
     H   -0.1458921175    0.6049983795    0.0704651621
     H   -0.7842323493    0.6917396881    0.2888639191
     H   -0.2099585038    0.6105972116    0.3670240370
     H    1.2107054050    0.4406848421   -0.2004150163
     H    0.9356846473    0.2527588501   -0.3375410724
     H    0.8188381749    0.4932651739   -0.3057236740
     H    1.0946887875    0.3510223981   -0.0178108249
     H    0.6458921175    0.3950016205   -0.4295348379
     H    1.2842323493    0.3082603119   -0.2111360809
     H    0.7099585038    0.3894027884   -0.1329759630
     C    0.5604979408    0.1414313559    0.6015908856
     C    0.4766804944    0.1613924020    0.3553519050
     C    0.2746887919    0.0916098627    0.3024381728
     C   -0.0604979408   -0.1414313559    1.1015908856
     C    0.0233195056   -0.1613924020    0.8553519050
     C    0.2253112081   -0.0916098627    0.8024381728
     C   -0.5604979408    0.6414313559   -0.1015908856
     C   -0.4766804944    0.6613924020    0.1446480950
     C   -0.2746887919    0.5916098627    0.1975618272
     C    1.0604979408    0.3585686441   -0.6015908856
     C    0.9766804944    0.3386075980   -0.3553519050
     C    0.7746887919    0.4083901373   -0.3024381728
     N    0.6556016677    0.1379422304    0.1857167562
     N   -0.1556016677   -0.1379422304    0.6857167562
     N   -0.6556016677    0.6379422304    0.3142832438
     N    1.1556016677    0.3620577696   -0.1857167562
     O    0.7282987571    0.0845504751    0.6282206289
     O    0.4501244636    0.1850860028    0.7608507860
     O   -0.2282987571   -0.0845504751    1.1282206289
     O    0.0498755364   -0.1850860028    1.2608507860
     O   -0.7282987571    0.5845504751   -0.1282206289
     O   -0.4501244636    0.6850860028   -0.2608507860
     O    1.2282987571    0.4154495249   -0.6282206289
     O    0.9501244636    0.3149139972   -0.7608507860
%ENDBLOCK POSITIONS_FRAC

%BLOCK SPECIES_POT
%ENDBLOCK SPECIES_POT


kpoints_mp_grid 2 2 2 
kpoints_mp_offset 0.5 0.5 0.5

symmetry_generate

